nbNodes = 12;
nbVehi = 3;
nbServi = 4;

e = 
 [ 0,  388,  436,  104,  220,   70,  328,  398,  446,  177,  359,    0,];

l = 
 [480, 480, 520, 166, 320, 151, 407, 504, 519, 244, 459, 480,];

a = 
 [|  1,  1,  1,  1,
 |  1,  1,  1,  1,
 |  1,  1,  1,  1,
 |];

p = array3d(1..nbNodes,1..nbVehi,1..nbServi,
[  0,  0,  0,  0,	  0,  0,  0,  0,	  0,  0,  0,  0,	
 12, 13, 10, 10,	 10, 11, 15, 10,	 10, 14, 15, 12,	
 14, 10, 15, 13,	 15, 13, 13, 15,	 12, 15, 15, 15,	
 11, 12, 15, 13,	 14, 13, 15, 11,	 14, 13, 11, 15,	
 16, 11, 12, 16,	 10, 11, 14, 12,	 16, 10, 15, 14,	
 10, 14, 10, 11,	 15, 13, 11, 11,	 13, 11, 12, 12,	
 12, 10, 13, 10,	 13, 12, 15, 10,	 11, 12, 13, 12,	
 12, 10, 12, 10,	 15, 11, 12, 14,	 15, 12, 15, 12,	
 14, 11, 13, 11,	 10, 14, 13, 12,	 14, 14, 12, 15,	
 15, 10, 15, 14,	 10, 10, 10, 13,	 10, 10, 13, 10,	
 11, 15, 12, 10,	 10, 11, 10, 14,	 10, 12, 15, 10,	
  0,  0,  0,  0,	  0,  0,  0,  0,	  0,  0,  0,  0,	
]);

rs = 
[|  true,  true,  true,  true,	 	
|  false,  false,  true,  false,	  	
|  true,  false,  false,  false,	  	
|  false,  false,  false,  true,	  	
|  false,  false,  false,  true,	  	
|  true,  false,  false,  false,	  	
|  true,  false,  false,  false,	  	
|  false,  false,  false,  true,	  	
|  false,  true,  false,  false,	  	
|  false,  true,  false,  false,	  	
|  false,  false,  true,  false,	  	
|  true,  true,  true,  true,	  	
|];

d=[|0, 24, 0, 0, 10, 3, 13, 25, 3, 11, 2, 0, 
|24, 0, 24, 24, 34, 21, 36, 33, 27, 31, 23, 24, 
|0, 24, 0, 0, 10, 3, 13, 25, 3, 11, 2, 0, 
|0, 24, 0, 0, 10, 3, 13, 25, 3, 11, 2, 0, 
|10, 34, 10, 10, 0, 13, 7, 26, 7, 12, 11, 10, 
|3, 21, 3, 3, 13, 0, 15, 26, 6, 12, 4, 3, 
|13, 36, 13, 13, 7, 15, 0, 34, 10, 6, 15, 13, 
|25, 33, 25, 25, 26, 26, 34, 0, 26, 36, 23, 25, 
|3, 27, 3, 3, 7, 6, 10, 26, 0, 9, 5, 3, 
|11, 31, 11, 11, 12, 12, 6, 36, 9, 0, 13, 11, 
|2, 23, 2, 2, 11, 4, 15, 23, 5, 13, 0, 2, 
|0, 24, 0, 0, 10, 3, 13, 25, 3, 11, 2, 0, 
|];
